units real
atom_style full

dimension 3
boundary p p p

pair_style lj/cut/coul/long 15.0 15.0
pair_modify mix geometric
kspace_style pppm 1.0e-5

bond_style hybrid harmonic morse
angle_style harmonic
special_bonds lj 0.0 0.0 0.5 coul 0.0 0.0 0.5
improper_style none

read_data improper_style-none-data.lmp

thermo_style custom ebond eangle edihed eimp epair evdwl ecoul elong etail pe

run 0
