units real
atom_style full

dimension 3
boundary p p p

pair_style lj/cut/coul/cut 10.0 10.0
pair_modify mix geometric
#kspace_style pppm 1.0e-8

bond_style harmonic
angle_style harmonic
special_bonds lj/coul 0.0 0.0 0.5

read_data data.lmp

thermo_style custom ebond eangle edihed eimp epair evdwl ecoul elong etail pe

run 0
