units real
atom_style charge

dimension 3
boundary p p p

pair_style lj/cut/coul/long 15.0 15.0
pair_modify mix geometric
kspace_style pppm 1.0e-5

read_data atom_style-charge-data.lmp

thermo_style custom ebond eangle edihed eimp epair evdwl ecoul elong etail pe

run 0
