units real
atom_style full

dimension 3
boundary p p p

pair_style lj/cut/coul/long 9.0 10.0
pair_modify mix geometric
kspace_style pppm 1.0e-4

bond_style harmonic
angle_style harmonic
dihedral_style opls
special_bonds lj/coul 0.0 0.0 0.5

read_data data.lmp

thermo_style custom ebond eangle edihed eimp epair evdwl ecoul pe ke etotal temp

run 0
